1 -1 2 0
1 3 -4 0
1 4 -5 0
1 -1 -5 0
1 6 -2 0
1 -3 -5 0
1 -2 0
1 2 4 0
1 6 4 0
1 -4 0
1 5 -3 0
1 1 -6 0
1 -4 2 0
1 6 -5 0
1 4 1 0
1 -3 4 0
1 -5 -4 0
1 2 1 0
1 -2 -4 0
1 -4 7 0
1 -5 3 0
1 8 -7 0
1 5 4 0
1 -1 8 0
1 -7 6 0
1 7 3 0
1 -8 6 0
1 -5 0
1 -1 6 0
1 -8 -7 0
1 4 -6 0
1 -3 0
1 -8 -4 0
1 1 -4 0
1 1 3 0
78500752 1 0
1 2 -3 0
1 5 3 0
1 2 8 0
1 -4 -6 0
1 -8 -5 0
1 4 7 0
1 -4 -1 0
1 -8 -1 0
1 7 -8 0
1 -8 -6 0
1 -1 5 0
1 -3 -4 0
1 -7 -6 0
1 -1 4 0
1 6 -8 0
1 -7 8 0
1 -7 -9 0
1 6 -4 0
1 -10 11 0
1 4 -12 0
1 -11 6 0
1 9 -13 0
1 14 0
1 -5 14 0
1 9 5 0
1 13 5 0
1 -12 10 0
1 -13 0
1 -3 -10 0
1 -11 0
1 1 12 0
1 -13 -14 0
1 -7 9 0
1 -13 1 0
1 4 -10 0
1 14 8 0
1 7 0
1 14 -12 0
1 14 10 0
1 -6 9 0
1 5 9 0
1 4 6 0
1 14 9 0
1 -14 -3 0
1 -11 7 0
1 12 9 0
1 10 7 0
1 -3 -13 0
1 -12 -14 0
1 12 -9 0
1 -11 9 0
1 14 -5 0
1 14 1 0
1 -9 0
1 -9 8 0
1 -5 -12 0
1 9 -12 0
1 -2 11 0
1 7 14 0
1 7 10 0
1 -12 0
1 -12 13 0
1 10 0
1 -8 4 0
1 12 -8 0
1 9 7 0
1 9 13 0
1 1 6 0
1 -5 8 0
1 12 -11 0
1 12 8 0
1 -6 0
1 13 -5 0
1 9 -7 0
1 2 14 0
1 9 -4 0
1 11 2 0
1 10 -8 0
1 -10 6 0
1 3 14 0
1 -9 -8 0
1 -14 -15 0
1 10 16 0
1 -16 -11 0
1 -8 15 0
122180789 -8 0
1 6 3 0
1 -10 15 0
1 -16 0
1 -2 -14 0
1 8 -16 0
1 -17 15 0
1 6 10 0
1 -18 0
1 19 -20 0
1 20 -21 0
1 -22 0
1 -20 23 0
1 24 0
1 -25 0
1 20 26 0
1 23 0
1 -26 -27 0
1 28 0
1 -27 29 0
1 30 0
1 26 -31 0
1 21 20 0
841581637 27 0
1 32 0
1 -21 -31 0
795704870 31 0
1 -31 29 0
1 -27 -31 0
1 -21 29 0
1 29 21 0
1 26 -27 0
1 -20 -21 0
1 31 20 0
1 -24 20 0
1 20 29 0
1 19 0
1 31 -23 0
1 -21 26 0
1 -29 31 0
1 -27 -29 0
1 29 -27 0
1 29 0
1 22 21 0
1 27 -26 0
1 -29 13 0
1 26 20 0
1 -30 31 0
1 21 26 0
1 27 -21 0
1 22 26 0
1 -21 -20 0
1 31 27 0
1 26 31 0
1 31 26 0
1 33 20 0
795177284 -34 0
1 31 -20 0
1 -20 31 0
1 -20 30 0
1 35 -31 0
1 -20 -26 0
1 -31 21 0
1 -31 -21 0
1 21 -19 0
1 -22 26 0
1 27 -31 0
1 -29 -31 0
1 -27 -3 0
1 -27 -21 0
1 -20 27 0
598360999 -27 21 0
1102288180 -21 0
1 27 31 0
1 26 29 0
1 -36 0
1 -23 29 0
1 -27 31 0
1 26 -29 0
1 -31 20 0
1 28 -32 0
1 -20 -27 0
1 -32 27 0
1 20 0
1 -29 -33 0
1 -21 -27 0
1 -26 30 0
1 -21 27 0
1 31 29 0
1 -20 29 0
1 21 -31 0
1 -29 -26 0
1 -21 -29 0
1 -37 -31 0
1 -31 26 0
1 -29 27 0
1 -26 18 0
1 24 -31 0
1 21 -20 0
1 -31 -34 0
1 -27 -28 0
1 29 31 0
1 -20 -36 0
1 18 -27 0
1 -33 21 0
1 -29 -21 0
1 -26 21 0
1 -31 -27 0
1 25 29 0
1 20 -2 0
1 -26 -29 0
1 31 -26 0
1 37 0
1 -27 20 0
1 21 27 0
1 -29 20 0
1 29 -26 0
1 15 0
1 -35 0
1 31 23 0
1 21 -29 0
1 26 29 31 0
1 -31 -36 0
1 -20 21 0
1 -26 0
1 -20 32 0
1 -33 0
1 -38 36 0
1 38 0
1 26 -20 0
1 -36 -31 0
h 39 -9 0
1 -39 0
h 40 -13 0
1 -40 0
h 15 17 0
h -15 -17 0
h 41 42 0
1 -41 0
h 43 14 0
1 -43 0
h 44 34 0
1 -44 0
